\ Model BinPackProb
\ LP format - for model browsing. Use MPS format to capture full model detail.
Minimize
  G[0] + G[1] + G[2] + G[3]
Subject To
 Assignment[34]: C[0,34] + C[1,34] + C[2,34] + C[3,34] = 1
 Assignment[21]: C[0,21] + C[1,21] + C[2,21] + C[3,21] = 1
 Assignment[29]: C[0,29] + C[1,29] + C[2,29] + C[3,29] = 1
 Assignment[41]: C[0,41] + C[1,41] + C[2,41] + C[3,41] = 1
 Assignment[46]: C[0,46] + C[1,46] + C[2,46] + C[3,46] = 1
 Assignment[26]: C[0,26] + C[1,26] + C[2,26] + C[3,26] = 1
 Assignment[45]: C[0,45] + C[1,45] + C[2,45] + C[3,45] = 1
 Assignment[40]: C[0,40] + C[1,40] + C[2,40] + C[3,40] = 1
 Assignment[22]: C[0,22] + C[1,22] + C[2,22] + C[3,22] = 1
 Assignment[38]: C[0,38] + C[1,38] + C[2,38] + C[3,38] = 1
 Assignment[44]: C[0,44] + C[1,44] + C[2,44] + C[3,44] = 1
 Assignment[24]: C[0,24] + C[1,24] + C[2,24] + C[3,24] = 1
 Assignment[39]: C[0,39] + C[1,39] + C[2,39] + C[3,39] = 1
 Assignment[32]: C[0,32] + C[1,32] + C[2,32] + C[3,32] = 1
 Capacity[0]: - 10 G[0] + 2.2 C[0,34] + 6.8 C[0,21] + 2.2 C[0,29]
   + 3.2 C[0,41] + 3.4 C[0,46] + 4.6 C[0,26] + 3.6 C[0,45] + C[0,40]
   + 5.7 C[0,22] + 0.1 C[0,38] + 8.5 C[0,44] + 1.9 C[0,24] + 2.8 C[0,39]
   + 4.7 C[0,32] <= 0
 Capacity[1]: - 10 G[1] + 2.2 C[1,34] + 6.8 C[1,21] + 2.2 C[1,29]
   + 3.2 C[1,41] + 3.4 C[1,46] + 4.6 C[1,26] + 3.6 C[1,45] + C[1,40]
   + 5.7 C[1,22] + 0.1 C[1,38] + 8.5 C[1,44] + 1.9 C[1,24] + 2.8 C[1,39]
   + 4.7 C[1,32] <= 0
 Capacity[2]: - 10 G[2] + 2.2 C[2,34] + 6.8 C[2,21] + 2.2 C[2,29]
   + 3.2 C[2,41] + 3.4 C[2,46] + 4.6 C[2,26] + 3.6 C[2,45] + C[2,40]
   + 5.7 C[2,22] + 0.1 C[2,38] + 8.5 C[2,44] + 1.9 C[2,24] + 2.8 C[2,39]
   + 4.7 C[2,32] <= 0
 Capacity[3]: - 10 G[3] + 2.2 C[3,34] + 6.8 C[3,21] + 2.2 C[3,29]
   + 3.2 C[3,41] + 3.4 C[3,46] + 4.6 C[3,26] + 3.6 C[3,45] + C[3,40]
   + 5.7 C[3,22] + 0.1 C[3,38] + 8.5 C[3,44] + 1.9 C[3,24] + 2.8 C[3,39]
   + 4.7 C[3,32] <= 0
 Sorting[1]: - G[0] + G[1] <= 0
 Sorting[2]: - G[1] + G[2] <= 0
 Sorting[3]: - G[2] + G[3] <= 0
Bounds
Binaries
 G[0] G[1] G[2] G[3] C[0,34] C[0,21] C[0,29] C[0,41] C[0,46] C[0,26]
 C[0,45] C[0,40] C[0,22] C[0,38] C[0,44] C[0,24] C[0,39] C[0,32] C[1,34]
 C[1,21] C[1,29] C[1,41] C[1,46] C[1,26] C[1,45] C[1,40] C[1,22] C[1,38]
 C[1,44] C[1,24] C[1,39] C[1,32] C[2,34] C[2,21] C[2,29] C[2,41] C[2,46]
 C[2,26] C[2,45] C[2,40] C[2,22] C[2,38] C[2,44] C[2,24] C[2,39] C[2,32]
 C[3,34] C[3,21] C[3,29] C[3,41] C[3,46] C[3,26] C[3,45] C[3,40] C[3,22]
 C[3,38] C[3,44] C[3,24] C[3,39] C[3,32]
End
